db/data/1631344341013428999125119231174315085.z3.out
-------------------
2500.160689781
